c File: data_files/evolved_graphs/g3719.col
c
c Auto generated graph
c
p edge 100 1023
e 1 4
e 1 9
e 1 12
e 1 23
e 1 27
e 1 31
e 1 32
e 1 33
e 1 39
e 1 64
e 1 96
e 1 99
e 2 8
e 2 35
e 2 44
e 2 50
e 2 51
e 2 52
e 2 53
e 2 55
e 2 62
e 2 69
e 2 70
e 2 74
e 2 84
e 2 96
e 2 98
e 2 99
e 3 5
e 3 9
e 3 12
e 3 13
e 3 14
e 3 17
e 3 18
e 3 22
e 3 26
e 3 30
e 3 39
e 3 44
e 3 46
e 3 47
e 3 48
e 3 51
e 3 56
e 3 66
e 3 71
e 3 84
e 3 97
e 4 6
e 4 7
e 4 10
e 4 11
e 4 15
e 4 18
e 4 19
e 4 23
e 4 24
e 4 33
e 4 45
e 4 47
e 4 73
e 4 95
e 4 99
e 4 100
e 5 16
e 5 17
e 5 24
e 5 27
e 5 28
e 5 40
e 5 43
e 5 45
e 5 48
e 5 50
e 5 51
e 5 52
e 5 53
e 5 64
e 5 65
e 5 78
e 5 81
e 5 89
e 5 98
e 6 7
e 6 9
e 6 11
e 6 14
e 6 16
e 6 27
e 6 28
e 6 42
e 6 44
e 6 46
e 6 49
e 6 51
e 6 53
e 6 55
e 6 76
e 6 77
e 6 78
e 6 79
e 6 87
e 6 95
e 7 8
e 7 9
e 7 10
e 7 11
e 7 15
e 7 17
e 7 22
e 7 24
e 7 25
e 7 29
e 7 32
e 7 37
e 7 39
e 7 41
e 7 45
e 7 66
e 7 96
e 7 97
e 8 10
e 8 11
e 8 16
e 8 20
e 8 22
e 8 25
e 8 26
e 8 27
e 8 29
e 8 37
e 8 43
e 8 48
e 8 50
e 8 92
e 8 94
e 8 100
e 9 10
e 9 11
e 9 26
e 9 28
e 9 38
e 9 48
e 9 62
e 9 67
e 9 76
e 10 11
e 10 13
e 10 20
e 10 21
e 10 27
e 10 29
e 10 35
e 10 39
e 10 47
e 10 51
e 10 52
e 10 57
e 10 60
e 10 65
e 10 69
e 10 84
e 10 90
e 10 92
e 10 98
e 11 16
e 11 19
e 11 21
e 11 24
e 11 27
e 11 28
e 11 30
e 11 31
e 11 32
e 11 33
e 11 34
e 11 36
e 11 38
e 11 39
e 11 40
e 11 41
e 11 44
e 11 45
e 11 46
e 11 51
e 11 55
e 11 59
e 11 61
e 11 66
e 11 74
e 11 88
e 11 93
e 11 98
e 11 99
e 12 16
e 12 17
e 12 19
e 12 21
e 12 22
e 12 25
e 12 28
e 12 29
e 12 31
e 12 32
e 12 33
e 12 34
e 12 37
e 12 41
e 12 42
e 12 44
e 12 56
e 12 65
e 12 67
e 12 68
e 12 80
e 12 85
e 12 86
e 12 99
e 13 24
e 13 30
e 13 32
e 13 34
e 13 37
e 13 49
e 13 52
e 13 58
e 13 63
e 13 69
e 13 70
e 13 75
e 13 84
e 13 87
e 14 16
e 14 19
e 14 28
e 14 29
e 14 35
e 14 38
e 14 44
e 14 45
e 14 48
e 14 51
e 14 52
e 14 53
e 14 55
e 14 66
e 14 72
e 14 83
e 14 89
e 14 93
e 14 97
e 15 25
e 15 29
e 15 30
e 15 33
e 15 36
e 15 42
e 15 47
e 15 51
e 15 65
e 15 72
e 15 74
e 15 84
e 15 87
e 16 17
e 16 20
e 16 31
e 16 32
e 16 33
e 16 42
e 16 46
e 16 52
e 16 62
e 16 63
e 16 71
e 16 75
e 16 86
e 16 87
e 17 25
e 17 27
e 17 30
e 17 33
e 17 34
e 17 35
e 17 42
e 17 43
e 17 46
e 17 55
e 17 63
e 17 69
e 17 70
e 17 74
e 17 83
e 17 90
e 17 95
e 17 99
e 18 23
e 18 25
e 18 27
e 18 32
e 18 34
e 18 41
e 18 43
e 18 44
e 18 45
e 18 48
e 18 49
e 18 55
e 18 59
e 18 76
e 18 78
e 18 93
e 18 94
e 19 26
e 19 27
e 19 28
e 19 30
e 19 33
e 19 43
e 19 44
e 19 47
e 19 52
e 19 53
e 19 54
e 19 78
e 20 21
e 20 33
e 20 36
e 20 40
e 20 51
e 20 56
e 20 61
e 20 68
e 20 69
e 20 92
e 20 93
e 21 24
e 21 35
e 21 36
e 21 40
e 21 41
e 21 42
e 21 46
e 21 49
e 21 53
e 21 54
e 21 64
e 21 65
e 21 77
e 21 93
e 22 26
e 22 33
e 22 37
e 22 50
e 22 61
e 22 62
e 22 63
e 22 73
e 22 78
e 22 84
e 22 87
e 23 26
e 23 28
e 23 31
e 23 34
e 23 35
e 23 39
e 23 41
e 23 46
e 23 50
e 23 53
e 23 57
e 23 59
e 23 60
e 23 66
e 23 69
e 23 93
e 23 95
e 23 96
e 23 98
e 24 28
e 24 30
e 24 32
e 24 35
e 24 41
e 24 42
e 24 45
e 24 48
e 24 50
e 24 52
e 24 58
e 24 63
e 24 74
e 24 82
e 24 85
e 24 87
e 24 95
e 25 26
e 25 29
e 25 37
e 25 39
e 25 41
e 25 42
e 25 43
e 25 46
e 25 48
e 25 49
e 25 50
e 25 52
e 25 53
e 25 67
e 25 72
e 25 76
e 25 78
e 25 87
e 25 94
e 25 95
e 26 29
e 26 31
e 26 34
e 26 37
e 26 38
e 26 40
e 26 43
e 26 45
e 26 50
e 26 51
e 26 54
e 26 55
e 26 56
e 26 59
e 26 64
e 26 68
e 26 78
e 26 79
e 26 81
e 26 82
e 26 87
e 26 91
e 26 94
e 26 95
e 26 97
e 27 28
e 27 34
e 27 36
e 27 43
e 27 45
e 27 50
e 27 53
e 27 56
e 27 60
e 27 71
e 27 73
e 27 74
e 27 89
e 27 92
e 28 29
e 28 33
e 28 36
e 28 56
e 28 69
e 28 73
e 28 80
e 28 96
e 29 35
e 29 36
e 29 38
e 29 43
e 29 44
e 29 47
e 29 54
e 29 55
e 29 58
e 29 64
e 29 79
e 29 82
e 29 83
e 29 87
e 29 91
e 29 100
e 30 33
e 30 37
e 30 48
e 30 57
e 30 64
e 30 66
e 30 77
e 30 79
e 30 84
e 30 100
e 31 40
e 31 46
e 31 49
e 31 51
e 31 60
e 31 64
e 31 72
e 31 83
e 31 89
e 31 96
e 32 35
e 32 36
e 32 37
e 32 38
e 32 41
e 32 45
e 32 47
e 32 48
e 32 50
e 32 52
e 32 53
e 32 58
e 32 77
e 32 78
e 32 82
e 32 83
e 32 92
e 32 97
e 33 35
e 33 36
e 33 37
e 33 44
e 33 46
e 33 51
e 34 35
e 34 37
e 34 38
e 34 47
e 34 49
e 34 51
e 34 52
e 34 53
e 34 59
e 34 60
e 34 67
e 34 72
e 34 76
e 34 78
e 34 92
e 34 94
e 35 36
e 35 37
e 35 43
e 35 45
e 35 49
e 35 51
e 35 53
e 35 60
e 35 61
e 35 66
e 35 67
e 35 73
e 35 78
e 35 92
e 36 40
e 36 41
e 36 42
e 36 46
e 36 53
e 37 41
e 37 51
e 37 55
e 37 57
e 37 63
e 37 72
e 37 75
e 37 86
e 37 91
e 37 93
e 37 96
e 37 100
e 38 41
e 38 44
e 38 62
e 38 76
e 38 80
e 38 82
e 38 88
e 38 89
e 38 98
e 39 42
e 39 48
e 39 53
e 39 57
e 39 61
e 39 65
e 39 83
e 39 84
e 39 86
e 39 87
e 40 42
e 40 43
e 40 47
e 40 50
e 40 54
e 40 62
e 40 68
e 40 71
e 40 80
e 40 86
e 41 44
e 41 47
e 41 50
e 41 62
e 41 64
e 41 67
e 41 69
e 41 77
e 41 90
e 41 95
e 42 48
e 42 52
e 42 55
e 42 62
e 42 65
e 42 69
e 42 72
e 42 78
e 42 81
e 42 85
e 42 88
e 42 97
e 43 44
e 43 48
e 43 57
e 43 59
e 43 62
e 43 63
e 43 66
e 43 67
e 43 70
e 43 87
e 43 90
e 43 94
e 43 95
e 43 100
e 44 52
e 44 60
e 44 70
e 44 72
e 44 74
e 44 75
e 44 79
e 44 93
e 44 94
e 44 97
e 44 98
e 45 47
e 45 49
e 45 57
e 45 84
e 45 87
e 45 91
e 45 95
e 45 98
e 46 52
e 46 56
e 46 62
e 46 66
e 46 75
e 46 85
e 46 87
e 46 91
e 46 95
e 46 98
e 47 48
e 47 49
e 47 59
e 47 63
e 47 68
e 47 69
e 47 74
e 47 78
e 47 95
e 47 96
e 47 98
e 48 49
e 48 50
e 48 52
e 48 54
e 48 65
e 48 68
e 48 70
e 48 72
e 48 73
e 48 81
e 48 86
e 48 90
e 48 93
e 48 95
e 49 54
e 49 55
e 49 63
e 49 67
e 49 71
e 49 80
e 49 87
e 49 91
e 49 94
e 49 97
e 50 52
e 50 56
e 50 63
e 50 65
e 50 66
e 50 72
e 50 73
e 50 75
e 50 78
e 50 80
e 50 86
e 50 87
e 50 94
e 50 99
e 50 100
e 51 52
e 51 67
e 51 71
e 51 81
e 51 84
e 51 94
e 51 95
e 51 97
e 51 99
e 52 59
e 52 72
e 52 74
e 52 76
e 52 79
e 52 83
e 52 85
e 52 87
e 52 93
e 52 97
e 52 98
e 53 55
e 53 61
e 53 64
e 53 68
e 53 71
e 53 83
e 53 88
e 53 97
e 54 61
e 54 64
e 54 66
e 54 72
e 54 74
e 54 78
e 55 61
e 55 64
e 55 90
e 55 99
e 56 60
e 56 61
e 56 64
e 56 69
e 56 81
e 56 84
e 57 60
e 57 63
e 57 64
e 57 87
e 58 63
e 58 75
e 58 78
e 59 63
e 59 68
e 59 73
e 59 81
e 59 85
e 60 81
e 60 83
e 60 88
e 60 89
e 61 63
e 61 76
e 61 83
e 61 90
e 61 93
e 61 94
e 61 99
e 62 64
e 62 71
e 62 94
e 62 95
e 62 99
e 63 67
e 63 74
e 63 76
e 63 82
e 63 90
e 63 92
e 63 94
e 63 95
e 63 100
e 64 67
e 64 71
e 64 73
e 64 78
e 64 80
e 64 85
e 64 87
e 64 90
e 64 91
e 64 95
e 64 98
e 64 99
e 65 68
e 65 71
e 65 73
e 65 74
e 65 79
e 65 80
e 65 83
e 65 91
e 65 95
e 65 96
e 65 100
e 66 70
e 66 71
e 66 75
e 66 76
e 66 77
e 66 80
e 66 82
e 66 88
e 66 93
e 66 95
e 66 96
e 66 100
e 67 70
e 67 71
e 67 81
e 67 88
e 67 98
e 67 99
e 67 100
e 68 71
e 68 72
e 68 74
e 68 78
e 68 80
e 68 82
e 68 94
e 68 97
e 68 98
e 69 70
e 69 73
e 69 76
e 69 84
e 69 93
e 69 95
e 69 96
e 69 98
e 69 99
e 69 100
e 70 76
e 70 81
e 70 84
e 70 89
e 70 95
e 70 96
e 70 97
e 70 99
e 71 78
e 71 79
e 71 82
e 71 83
e 71 86
e 71 90
e 71 92
e 71 96
e 71 99
e 72 73
e 72 79
e 72 87
e 72 97
e 72 99
e 73 75
e 73 91
e 73 95
e 73 98
e 74 75
e 74 77
e 74 79
e 74 81
e 74 89
e 74 95
e 74 97
e 75 78
e 75 87
e 75 91
e 75 93
e 75 95
e 75 96
e 75 97
e 75 98
e 75 99
e 76 78
e 76 81
e 76 83
e 76 87
e 76 91
e 76 95
e 76 96
e 76 98
e 76 99
e 76 100
e 77 80
e 77 89
e 77 92
e 77 93
e 77 95
e 77 97
e 77 98
e 77 99
e 77 100
e 78 79
e 78 81
e 78 82
e 78 83
e 78 84
e 78 86
e 78 89
e 78 91
e 78 96
e 78 97
e 78 98
e 78 99
e 78 100
e 79 82
e 79 83
e 79 85
e 79 86
e 79 88
e 79 92
e 79 93
e 79 95
e 79 96
e 79 97
e 79 98
e 79 99
e 80 82
e 80 86
e 80 87
e 80 90
e 80 94
e 80 95
e 80 96
e 80 97
e 81 86
e 81 93
e 81 95
e 81 96
e 81 97
e 81 100
e 82 84
e 82 86
e 82 89
e 82 91
e 82 95
e 82 96
e 82 98
e 82 99
e 82 100
e 83 88
e 83 91
e 83 94
e 83 97
e 83 98
e 83 99
e 83 100
e 84 91
e 84 98
e 84 99
e 85 86
e 85 89
e 85 90
e 85 95
e 85 96
e 85 98
e 86 91
e 86 95
e 86 96
e 86 99
e 86 100
e 87 91
e 87 96
e 87 98
e 87 99
e 87 100
e 88 91
e 88 92
e 88 95
e 88 96
e 88 98
e 88 99
e 88 100
e 89 96
e 89 97
e 89 98
e 89 100
e 90 92
e 90 97
e 90 98
e 90 100
e 91 93
e 91 96
e 91 99
e 92 95
e 92 98
e 92 99
e 93 95
e 93 97
e 93 98
e 93 99
e 93 100
e 94 96
e 94 100
e 95 98
e 95 100
